(set-logic HORN)
(declare-rel inv1 ( (Array Int Int) Int Int))(declare-rel inv2 ( (Array Int Int) Int Int))(declare-rel fail ( ))(forall ((a (Array Int Int)) (N Int)) (! (inv1 a 0 N) ))(forall ((a (Array Int Int))
         (j Int)
         (i Int)
         (a1 (Array Int Int))
         (i1 Int)
         (N Int))
  (! (=> (and (inv1 a i N) (< i N) (< j i) (= (store a i j) a1) (= i1 (+ i 1)))
         (inv1 a1 i1 N))
     ))(forall ((i Int) (a (Array Int Int)) (N Int))
  (! (=> (and (inv1 a i N) (>= i N)) (inv2 a 0 N)) ))(forall ((a (Array Int Int))
         (j Int)
         (i Int)
         (a1 (Array Int Int))
         (i1 Int)
         (N Int))
  (! (let ((a!1 (= (store a i (+ (select a i) j)) a1)))
       (=> (and (inv2 a i N) (< i N) (< j i) a!1 (= i1 (+ i 1))) (inv2 a1 i1 N)))
     ))(forall ((i Int) (N Int) (a (Array Int Int)) (i1 Int))
  (! (let ((a!1 (and (inv2 a i N)
                     (>= i N)
                     (< 0 i1)
                     (< i1 N)
                     (not (< (select a i1) (* 2 i1))))))
       (=> a!1 fail))
     ))(assert (not fail))
(check-sat)